
ASes= { 1, 2, 3, 4, 5, 6, 7, 8, 9, 10, 11 } ;


Objects= { 1, 2, 3, 4, 5, 6, 7, 8, 9, 10, 11, 12, 13, 14, 15, 16, 17, 18, 19, 20, 21, 22, 23, 24, 25, 26, 27, 28, 29, 30, 31, 32, 33, 34, 35, 36, 37, 38, 39, 40, 41, 42, 43, 44, 45, 46, 47, 48, 49, 50, 51, 52, 53, 54, 55, 56, 57, 58, 59, 60, 61, 62, 63, 64, 65, 66, 67, 68, 69, 70, 71, 72, 73, 74, 75, 76, 77, 78, 79, 80, 81, 82, 83, 84, 85, 86, 87, 88, 89, 90, 91, 92, 93, 94, 95, 96, 97, 98, 99, 100 } ;


QualityLevels= { 0, 1, 2, 3, 4, 5 } ;

Arcs = {<2,1,490000>, <1,2,490000>, <11,1,490000>, <1,11,490000>, <11,2,490000>, <2,11,490000>, <11,10,490000>, <10,11,490000>, <3,2,490000>, <2,3,490000>, <4,3,490000>, <3,4,490000>, <5,4,490000>, <4,5,490000>, <6,5,490000>, <5,6,490000>, <7,6,490000>, <6,7,490000>, <8,4,490000>, <4,8,490000>, <8,7,490000>, <7,8,490000>, <9,3,490000>, <3,9,490000>, <9,8,490000>, <8,9,490000>, <10,9,490000>, <9,10,490000>};


RatePerQuality= [ 0  300  700  1500  2500  3500 ] ;


CacheSpacePerQuality= [ 10000  11.25  26.25  56.25  93.75  131.25 ] ;


UtilityPerQuality= [ 0  0.2  0.4  0.6  0.8  1 ] ;


ObjectsPublishedByProducers=[ [ 0  0  0  0  0  0  0  1  0  0  0 ]  [ 0  0  0  0  0  0  0  1  0  0  0 ]  [ 0  0  0  0  0  0  0  1  0  0  0 ]  [ 0  0  0  0  0  0  0  1  0  0  0 ]  [ 0  0  0  0  0  0  0  1  0  0  0 ]  [ 0  0  0  0  0  0  0  1  0  0  0 ]  [ 0  0  0  0  0  0  0  1  0  0  0 ]  [ 0  0  0  0  0  0  0  1  0  0  0 ]  [ 0  0  0  0  0  0  0  1  0  0  0 ]  [ 0  0  0  0  0  0  0  1  0  0  0 ]  [ 0  0  0  0  0  0  0  1  0  0  0 ]  [ 0  0  0  0  0  0  0  1  0  0  0 ]  [ 0  0  0  0  0  0  0  1  0  0  0 ]  [ 0  0  0  0  0  0  0  1  0  0  0 ]  [ 0  0  0  0  0  0  0  1  0  0  0 ]  [ 0  0  0  0  0  0  0  1  0  0  0 ]  [ 0  0  0  0  0  0  0  1  0  0  0 ]  [ 0  0  0  0  0  0  0  1  0  0  0 ]  [ 0  0  0  0  0  0  0  1  0  0  0 ]  [ 0  0  0  0  0  0  0  1  0  0  0 ]  [ 0  0  0  0  0  0  0  1  0  0  0 ]  [ 0  0  0  0  0  0  0  1  0  0  0 ]  [ 0  0  0  0  0  0  0  1  0  0  0 ]  [ 0  0  0  0  0  0  0  1  0  0  0 ]  [ 0  0  0  0  0  0  0  1  0  0  0 ]  [ 0  0  0  0  0  0  0  1  0  0  0 ]  [ 0  0  0  0  0  0  0  1  0  0  0 ]  [ 0  0  0  0  0  0  0  1  0  0  0 ]  [ 0  0  0  0  0  0  0  1  0  0  0 ]  [ 0  0  0  0  0  0  0  1  0  0  0 ]  [ 0  0  0  0  0  0  0  1  0  0  0 ]  [ 0  0  0  0  0  0  0  1  0  0  0 ]  [ 0  0  0  0  0  0  0  1  0  0  0 ]  [ 0  0  0  0  0  0  0  1  0  0  0 ]  [ 0  0  0  0  0  0  0  1  0  0  0 ]  [ 0  0  0  0  0  0  0  1  0  0  0 ]  [ 0  0  0  0  0  0  0  1  0  0  0 ]  [ 0  0  0  0  0  0  0  1  0  0  0 ]  [ 0  0  0  0  0  0  0  1  0  0  0 ]  [ 0  0  0  0  0  0  0  1  0  0  0 ]  [ 0  0  0  0  0  0  0  1  0  0  0 ]  [ 0  0  0  0  0  0  0  1  0  0  0 ]  [ 0  0  0  0  0  0  0  1  0  0  0 ]  [ 0  0  0  0  0  0  0  1  0  0  0 ]  [ 0  0  0  0  0  0  0  1  0  0  0 ]  [ 0  0  0  0  0  0  0  1  0  0  0 ]  [ 0  0  0  0  0  0  0  1  0  0  0 ]  [ 0  0  0  0  0  0  0  1  0  0  0 ]  [ 0  0  0  0  0  0  0  1  0  0  0 ]  [ 0  0  0  0  0  0  0  1  0  0  0 ]  [ 0  0  0  0  0  0  0  1  0  0  0 ]  [ 0  0  0  0  0  0  0  1  0  0  0 ]  [ 0  0  0  0  0  0  0  1  0  0  0 ]  [ 0  0  0  0  0  0  0  1  0  0  0 ]  [ 0  0  0  0  0  0  0  1  0  0  0 ]  [ 0  0  0  0  0  0  0  1  0  0  0 ]  [ 0  0  0  0  0  0  0  1  0  0  0 ]  [ 0  0  0  0  0  0  0  1  0  0  0 ]  [ 0  0  0  0  0  0  0  1  0  0  0 ]  [ 0  0  0  0  0  0  0  1  0  0  0 ]  [ 0  0  0  0  0  0  0  1  0  0  0 ]  [ 0  0  0  0  0  0  0  1  0  0  0 ]  [ 0  0  0  0  0  0  0  1  0  0  0 ]  [ 0  0  0  0  0  0  0  1  0  0  0 ]  [ 0  0  0  0  0  0  0  1  0  0  0 ]  [ 0  0  0  0  0  0  0  1  0  0  0 ]  [ 0  0  0  0  0  0  0  1  0  0  0 ]  [ 0  0  0  0  0  0  0  1  0  0  0 ]  [ 0  0  0  0  0  0  0  1  0  0  0 ]  [ 0  0  0  0  0  0  0  1  0  0  0 ]  [ 0  0  0  0  0  0  0  1  0  0  0 ]  [ 0  0  0  0  0  0  0  1  0  0  0 ]  [ 0  0  0  0  0  0  0  1  0  0  0 ]  [ 0  0  0  0  0  0  0  1  0  0  0 ]  [ 0  0  0  0  0  0  0  1  0  0  0 ]  [ 0  0  0  0  0  0  0  1  0  0  0 ]  [ 0  0  0  0  0  0  0  1  0  0  0 ]  [ 0  0  0  0  0  0  0  1  0  0  0 ]  [ 0  0  0  0  0  0  0  1  0  0  0 ]  [ 0  0  0  0  0  0  0  1  0  0  0 ]  [ 0  0  0  0  0  0  0  1  0  0  0 ]  [ 0  0  0  0  0  0  0  1  0  0  0 ]  [ 0  0  0  0  0  0  0  1  0  0  0 ]  [ 0  0  0  0  0  0  0  1  0  0  0 ]  [ 0  0  0  0  0  0  0  1  0  0  0 ]  [ 0  0  0  0  0  0  0  1  0  0  0 ]  [ 0  0  0  0  0  0  0  1  0  0  0 ]  [ 0  0  0  0  0  0  0  1  0  0  0 ]  [ 0  0  0  0  0  0  0  1  0  0  0 ]  [ 0  0  0  0  0  0  0  1  0  0  0 ]  [ 0  0  0  0  0  0  0  1  0  0  0 ]  [ 0  0  0  0  0  0  0  1  0  0  0 ]  [ 0  0  0  0  0  0  0  1  0  0  0 ]  [ 0  0  0  0  0  0  0  1  0  0  0 ]  [ 0  0  0  0  0  0  0  1  0  0  0 ]  [ 0  0  0  0  0  0  0  1  0  0  0 ]  [ 0  0  0  0  0  0  0  1  0  0  0 ]  [ 0  0  0  0  0  0  0  1  0  0  0 ]  [ 0  0  0  0  0  0  0  1  0  0  0 ]  [ 0  0  0  0  0  0  0  1  0  0  0 ] ];

ObjRequests = {  <1,5,536>, <2,5,399>, <3,5,89>, <4,5,70>, <5,5,51>, <6,5,73>, <7,5,4>, <8,5,7>, <9,5,8>, <10,5,88>, <11,5,25>, <12,5,61>, <13,5,6>, <14,5,60>, <15,5,41>, <16,5,27>, <17,5,4>, <18,5,3>, <19,5,10>, <20,5,14>, <21,5,5>, <22,5,2>, <24,5,13>, <25,5,40>, <26,5,5>, <27,5,18>, <28,5,9>, <29,5,30>, <30,5,15>, <31,5,13>, <32,5,10>, <33,5,15>, <34,5,4>, <35,5,13>, <36,5,6>, <37,5,11>, <38,5,2>, <39,5,10>, <40,5,10>, <41,5,5>, <43,5,8>, <44,5,3>, <45,5,5>, <46,5,6>, <47,5,8>, <48,5,5>, <49,5,6>, <50,5,13>, <52,5,11>, <53,5,4>, <54,5,3>, <55,5,1>, <56,5,4>, <57,5,2>, <58,5,13>, <59,5,10>, <60,5,6>, <61,5,14>, <62,5,9>, <63,5,13>, <64,5,8>, <65,5,2>, <66,5,4>, <67,5,4>, <68,5,2>, <69,5,1>, <70,5,4>, <71,5,2>, <72,5,2>, <73,5,5>, <74,5,4>, <75,5,6>, <76,5,1>, <77,5,2>, <78,5,7>, <79,5,7>, <80,5,1>, <81,5,1>, <83,5,1>, <84,5,9>, <85,5,1>, <86,5,2>, <87,5,1>, <88,5,2>, <89,5,1>, <90,5,1>, <91,5,8>, <92,5,1>, <93,5,12>, <94,5,2>, <95,5,5>, <96,5,2>, <97,5,5>, <98,5,6>, <99,5,1>, <100,5,3>, <1,6,40>, <2,6,155>, <3,6,51>, <4,6,29>, <5,6,79>, <6,6,128>, <7,6,120>, <8,6,7>, <9,6,57>, <10,6,1>, <11,6,38>, <12,6,12>, <13,6,16>, <14,6,13>, <15,6,25>, <16,6,11>, <17,6,11>, <18,6,22>, <19,6,35>, <20,6,15>, <21,6,4>, <23,6,18>, <24,6,3>, <25,6,4>, <26,6,1>, <27,6,6>, <28,6,25>, <29,6,3>, <30,6,1>, <31,6,7>, <33,6,16>, <34,6,9>, <35,6,7>, <36,6,6>, <37,6,1>, <38,6,19>, <39,6,12>, <40,6,26>, <41,6,21>, <42,6,8>, <43,6,15>, <44,6,2>, <45,6,6>, <47,6,2>, <48,6,4>, <49,6,2>, <51,6,1>, <52,6,5>, <53,6,3>, <54,6,19>, <55,6,6>, <56,6,9>, <57,6,7>, <58,6,7>, <59,6,6>, <60,6,6>, <61,6,4>, <63,6,7>, <64,6,12>, <65,6,5>, <66,6,2>, <67,6,1>, <68,6,7>, <69,6,15>, <70,6,17>, <71,6,3>, <72,6,1>, <73,6,1>, <74,6,3>, <75,6,4>, <76,6,6>, <77,6,8>, <79,6,1>, <80,6,7>, <81,6,10>, <82,6,1>, <83,6,1>, <85,6,5>, <87,6,6>, <88,6,3>, <89,6,1>, <90,6,7>, <91,6,1>, <92,6,3>, <93,6,6>, <94,6,3>, <95,6,3>, <96,6,4>, <97,6,5>, <98,6,4>, <99,6,1>, <100,6,2>, <1,7,408>, <2,7,119>, <3,7,126>, <4,7,43>, <5,7,90>, <6,7,33>, <7,7,54>, <8,7,71>, <9,7,17>, <10,7,1>, <11,7,39>, <12,7,9>, <13,7,46>, <14,7,26>, <15,7,6>, <16,7,20>, <17,7,15>, <18,7,7>, <19,7,16>, <20,7,11>, <21,7,37>, <22,7,10>, <23,7,35>, <24,7,25>, <25,7,33>, <26,7,29>, <27,7,1>, <28,7,3>, <29,7,6>, <30,7,5>, <32,7,7>, <33,7,7>, <34,7,13>, <35,7,8>, <36,7,18>, <37,7,4>, <38,7,17>, <39,7,5>, <40,7,1>, <41,7,4>, <42,7,1>, <43,7,1>, <44,7,14>, <45,7,7>, <46,7,18>, <47,7,5>, <48,7,2>, <49,7,16>, <50,7,4>, <51,7,4>, <52,7,8>, <53,7,3>, <54,7,5>, <56,7,1>, <57,7,2>, <59,7,8>, <60,7,5>, <61,7,2>, <62,7,6>, <63,7,1>, <64,7,7>, <66,7,4>, <67,7,12>, <68,7,8>, <69,7,1>, <71,7,3>, <72,7,4>, <73,7,5>, <74,7,8>, <75,7,2>, <77,7,4>, <78,7,13>, <79,7,6>, <81,7,3>, <82,7,3>, <84,7,11>, <85,7,5>, <86,7,3>, <88,7,17>, <89,7,7>, <90,7,3>, <91,7,2>, <92,7,10>, <93,7,2>, <94,7,1>, <95,7,1>, <96,7,12>, <97,7,2>, <98,7,1>, <99,7,1>, <100,7,3>, <1,1,477>, <2,1,96>, <3,1,245>, <4,1,4>, <5,1,34>, <6,1,21>, <7,1,16>, <8,1,19>, <9,1,15>, <10,1,35>, <11,1,17>, <12,1,15>, <13,1,52>, <14,1,9>, <15,1,17>, <16,1,17>, <17,1,41>, <18,1,48>, <19,1,4>, <20,1,39>, <21,1,23>, <22,1,7>, <23,1,10>, <24,1,9>, <26,1,5>, <27,1,39>, <28,1,6>, <29,1,4>, <30,1,12>, <31,1,25>, <32,1,31>, <33,1,3>, <34,1,11>, <35,1,15>, <36,1,10>, <37,1,11>, <38,1,7>, <39,1,12>, <41,1,6>, <42,1,28>, <43,1,5>, <44,1,19>, <45,1,3>, <47,1,6>, <48,1,14>, <49,1,3>, <50,1,1>, <51,1,3>, <52,1,6>, <53,1,8>, <54,1,2>, <55,1,1>, <56,1,1>, <57,1,4>, <58,1,10>, <59,1,2>, <60,1,2>, <61,1,8>, <62,1,11>, <63,1,4>, <64,1,2>, <65,1,14>, <66,1,2>, <67,1,3>, <68,1,7>, <69,1,3>, <71,1,4>, <73,1,3>, <76,1,3>, <77,1,5>, <78,1,2>, <79,1,3>, <80,1,10>, <82,1,2>, <83,1,7>, <84,1,2>, <85,1,1>, <86,1,10>, <87,1,2>, <90,1,4>, <91,1,2>, <92,1,4>, <93,1,1>, <94,1,15>, <95,1,1>, <96,1,3>, <97,1,2>, <98,1,8>, <99,1,10>, <100,1,4>, <1,10,124>, <2,10,33>, <3,10,19>, <4,10,251>, <5,10,50>, <6,10,2>, <7,10,11>, <8,10,100>, <9,10,60>, <10,10,9>, <11,10,29>, <12,10,35>, <13,10,6>, <14,10,1>, <15,10,13>, <16,10,24>, <17,10,23>, <18,10,14>, <19,10,4>, <20,10,10>, <21,10,2>, <22,10,48>, <23,10,3>, <24,10,9>, <25,10,4>, <26,10,23>, <27,10,2>, <28,10,3>, <29,10,3>, <30,10,14>, <31,10,5>, <32,10,1>, <33,10,4>, <34,10,6>, <35,10,14>, <37,10,6>, <39,10,4>, <40,10,7>, <41,10,1>, <43,10,5>, <44,10,1>, <45,10,1>, <46,10,3>, <47,10,2>, <48,10,9>, <49,10,3>, <50,10,13>, <51,10,20>, <52,10,2>, <53,10,16>, <55,10,28>, <56,10,17>, <57,10,7>, <58,10,2>, <59,10,1>, <60,10,1>, <61,10,3>, <62,10,1>, <63,10,6>, <64,10,1>, <65,10,5>, <66,10,7>, <67,10,11>, <68,10,4>, <69,10,4>, <70,10,2>, <71,10,5>, <72,10,21>, <73,10,4>, <74,10,5>, <75,10,3>, <76,10,2>, <77,10,4>, <79,10,12>, <80,10,2>, <81,10,7>, <82,10,12>, <83,10,4>, <85,10,2>, <86,10,6>, <87,10,3>, <88,10,4>, <89,10,5>, <90,10,12>, <91,10,8>, <92,10,5>, <93,10,2>, <94,10,1>, <96,10,6>, <97,10,5>, <98,10,1>, <99,10,1> };

MaxCacheStorageAtSingleAS= [ 131.25  131.25  131.25  131.25  131.25  131.25  131.25  131.25  131.25  131.25  131.25 ] ;

MaxCacheStorage = 1443.75 ;
SolutionGap = 0.01 ;
